max_width = 30;
n_blocks = 29;
width = [11, 11, 10, 10, 9, 9, 8, 7, 7, 7, 7, 7, 6, 6, 6, 6, 6, 5, 4, 4, 4, 4, 4, 3, 3, 2, 2, 2, 1];
height = [5, 4, 19, 7, 16, 9, 5, 25, 13, 12, 7, 5, 24, 18, 11, 10, 5, 21, 23, 10, 2, 2, 1, 6, 5, 12, 7, 1, 4];
